p tw 48 96
26 44
2 26
26 45
11 26
12 44
41 44
36 44
12 48
12 27
12 25
14 48
18 48
32 48
2 14
14 19
4 14
2 35
2 39
41 45
35 45
43 45
27 41
7 41
18 27
27 38
18 19
18 24
19 35
19 42
15 35
7 43
15 43
6 43
7 38
7 10
24 38
13 38
24 42
24 46
15 42
30 42
15 31
6 10
6 31
5 6
10 13
10 40
13 46
13 22
30 46
23 46
30 31
21 30
31 37
5 40
5 37
5 47
22 40
3 40
22 23
1 22
21 23
16 23
21 37
8 21
17 37
3 47
17 47
28 47
1 3
3 33
1 16
1 20
8 16
16 34
8 17
8 9
17 29
28 33
28 29
11 28
20 33
33 36
20 34
20 25
9 34
32 34
9 29
4 9
29 39
11 36
11 39
25 36
25 32
4 32
4 39
